Maximize
F 

Subject to
F - 6.0y12 - 3.0y157 - 3.0y207 - 12.0y219 - 12.0y29 - 12.0y179 - 12.0y126 - 3.0y212 - 9.0y51 - 3.0y140 - 12.0y258 - 9.0y161 - 3.0y81 - 6.0y238 - 12.0y125 - 3.0y242 - 9.0y1 - 3.0y130 - 12.0y254 - 9.0y216 - 12.0y13 - 12.0y167 - 9.0y60 - 3.0y256 = 0

x14x12x1 + x14x157x1 + x14x219x1 + x14x179x1 + x14x212x1 + x14x51x1 + x14x140x1 + x14x258x1 + x14x161x1 + x14x125x1 + x14x242x1 + x14x1x1 + x14x130x1 + x14x254x1 + x14x13x1 + x14x60x1 
<= 1
x156x51x1 + x156x140x1 + x156x242x1 + x156x1x1 + x156x130x1 + x156x254x1 + x156x13x1 + x156x60x1 
<= 2
x112x60x1 
<= 1
x22x60x1 
<= 1
x261x207x2 + x261x29x2 + x261x179x2 + x261x81x2 + x261x238x2 + x261x125x2 + x261x130x2 + x261x216x2 + x261x167x2 + x261x256x2 
<= 1
x239x207x2 + x239x29x2 + x239x179x2 + x239x81x2 + x239x238x2 + x239x125x2 + x239x130x2 + x239x216x2 + x239x167x2 + x239x256x2 
<= 1
x206x256x2 
<= 2
x112x256x2 
<= 1
x8x256x3 
<= 2
x181x140x3 + x181x81x3 + x181x256x3 
<= 2
x22x256x3 
<= 1
x61x256x3 
<= 2

x14x12x1 
- x12x0x1
- x12x179x1 - x12x51x1 - x12x140x1 - x12x130x1 - x12x60x1 
= 0


- x12x140x3 - x12x256x3 
= 0

x14x157x1 
- x157x0x1
- x157x242x1 - x157x1x1 - x157x254x1 - x157x13x1 
= 0


- x157x126x3 
= 0


x261x207x2 + x239x207x2 
- x207x0x2
- x207x130x2 - x207x216x2 - x207x256x2 
= 0

- x207x140x3 - x207x256x3 
= 0

x14x219x1 
- x219x0x1
- x219x179x1 - x219x51x1 - x219x140x1 - x219x130x1 - x219x60x1 
= 0




x261x29x2 + x239x29x2 
- x29x0x2
- x29x125x2 - x29x130x2 - x29x216x2 
= 0


x14x179x1 + x12x179x1 + x219x179x1 
- x179x0x1
- x179x51x1 - x179x140x1 - x179x130x1 - x179x60x1 
= 0
x261x179x2 + x239x179x2 
- x179x0x2
- x179x130x2 - x179x216x2 - x179x256x2 
= 0




x157x126x3 
- x126x0x3

= 0

x14x212x1 
- x212x0x1
- x212x242x1 - x212x1x1 - x212x254x1 - x212x13x1 
= 0



x14x51x1 + x156x51x1 + x12x51x1 + x219x51x1 + x179x51x1 
- x51x0x1
- x51x60x1 
= 0



x14x140x1 + x156x140x1 + x12x140x1 + x219x140x1 + x179x140x1 
- x140x0x1
- x140x130x1 - x140x60x1 
= 0

x181x140x3 + x12x140x3 + x207x140x3 
- x140x0x3
- x140x256x3 
= 0

x14x258x1 
- x258x0x1
- x258x130x1 
= 0



x14x161x1 
- x161x0x1

= 0




x261x81x2 + x239x81x2 
- x81x0x2
- x81x238x2 
= 0
x181x81x3 
- x81x0x3

= 0


x261x238x2 + x239x238x2 + x81x238x2 
- x238x0x2

= 0


x14x125x1 
- x125x0x1

= 0
x261x125x2 + x239x125x2 + x29x125x2 
- x125x0x2

= 0


x14x242x1 + x156x242x1 + x157x242x1 + x212x242x1 
- x242x0x1
- x242x13x1 
= 0



x14x1x1 + x156x1x1 + x157x1x1 + x212x1x1 
- x1x0x1
- x1x13x1 
= 0



x14x130x1 + x156x130x1 + x12x130x1 + x219x130x1 + x179x130x1 + x140x130x1 + x258x130x1 
- x130x0x1

= 0
x261x130x2 + x239x130x2 + x207x130x2 + x29x130x2 + x179x130x2 
- x130x0x2
- x130x216x2 
= 0


x14x254x1 + x156x254x1 + x157x254x1 + x212x254x1 
- x254x0x1

= 0




x261x216x2 + x239x216x2 + x207x216x2 + x29x216x2 + x179x216x2 + x130x216x2 
- x216x0x2

= 0


x14x13x1 + x156x13x1 + x157x13x1 + x212x13x1 + x242x13x1 + x1x13x1 
- x13x0x1

= 0




x261x167x2 + x239x167x2 
- x167x0x2

= 0


x14x60x1 + x156x60x1 + x112x60x1 + x22x60x1 + x12x60x1 + x219x60x1 + x179x60x1 + x51x60x1 + x140x60x1 
- x60x0x1

= 0




x261x256x2 + x239x256x2 + x206x256x2 + x112x256x2 + x207x256x2 + x179x256x2 
- x256x0x2

= 0
x8x256x3 + x181x256x3 + x22x256x3 + x61x256x3 + x12x256x3 + x207x256x3 + x140x256x3 
- x256x0x3

= 0

1y12 - x14x12x1 = 0
1y12 = 0
1y157 - x14x157x1 = 0
1y157 = 0
1y207 - x261x207x2 - x239x207x2 = 0
1y207 = 0
2y219 - x14x219x1 = 0
2y29 - x261x29x2 - x239x29x2 = 0
1y179 - x14x179x1 - x12x179x1 - x219x179x1 = 0
1y179 - x261x179x2 - x239x179x2 = 0
2y126 - x157x126x3 = 0
1y212 - x14x212x1 = 0
1y212 = 0
2y51 - x14x51x1 - x156x51x1 - x12x51x1 - x219x51x1 - x179x51x1 = 0
1y140 - x14x140x1 - x156x140x1 - x12x140x1 - x219x140x1 - x179x140x1 = 0
1y140 - x181x140x3 - x12x140x3 - x207x140x3 = 0
2y258 - x14x258x1 = 0
2y161 - x14x161x1 = 0
1y81 - x261x81x2 - x239x81x2 = 0
1y81 - x181x81x3 = 0
2y238 - x261x238x2 - x239x238x2 - x81x238x2 = 0
1y125 - x14x125x1 = 0
1y125 - x261x125x2 - x239x125x2 - x29x125x2 = 0
2y242 - x14x242x1 - x156x242x1 - x157x242x1 - x212x242x1 = 0
2y1 - x14x1x1 - x156x1x1 - x157x1x1 - x212x1x1 = 0
1y130 - x14x130x1 - x156x130x1 - x12x130x1 - x219x130x1 - x179x130x1 - x140x130x1 - x258x130x1 = 0
1y130 - x261x130x2 - x239x130x2 - x207x130x2 - x29x130x2 - x179x130x2 = 0
2y254 - x14x254x1 - x156x254x1 - x157x254x1 - x212x254x1 = 0
2y216 - x261x216x2 - x239x216x2 - x207x216x2 - x29x216x2 - x179x216x2 - x130x216x2 = 0
2y13 - x14x13x1 - x156x13x1 - x157x13x1 - x212x13x1 - x242x13x1 - x1x13x1 = 0
2y167 - x261x167x2 - x239x167x2 = 0
2y60 - x14x60x1 - x156x60x1 - x112x60x1 - x22x60x1 - x12x60x1 - x219x60x1 - x179x60x1 - x51x60x1 - x140x60x1 = 0
1y256 - x261x256x2 - x239x256x2 - x206x256x2 - x112x256x2 - x207x256x2 - x179x256x2 = 0
1y256 - x8x256x3 - x181x256x3 - x22x256x3 - x61x256x3 - x12x256x3 - x207x256x3 - x140x256x3 = 0

s14 - s12 + 8.427298z14z12z1 <= 6.94
s14 - s157 + 8.462652z14z157z1 <= 6.94
s14 - s219 + 8.453015z14z219z1 <= 6.94
s14 - s179 + 8.440588z14z179z1 <= 6.94
s14 - s212 + 8.492966z14z212z1 <= 6.94
s14 - s51 + 8.428571z14z51z1 <= 6.94
s14 - s140 + 8.441163z14z140z1 <= 6.94
s14 - s258 + 8.631971z14z258z1 <= 6.94
s14 - s161 + 8.646348z14z161z1 <= 6.94
s14 - s125 + 8.700889z14z125z1 <= 6.94
s14 - s242 + 8.475853z14z242z1 <= 6.94
s14 - s1 + 8.484884z14z1z1 <= 6.94
s14 - s130 + 8.640132z14z130z1 <= 6.94
s14 - s254 + 8.578330z14z254z1 <= 6.94
s14 - s13 + 8.493567z14z13z1 <= 6.94
s14 - s60 + 8.371297z14z60z1 <= 6.94
s156 - s51 + 9.118451z156z51z1 <= 7.81
s156 - s140 + 9.130384z156z140z1 <= 7.81
s156 - s242 + 9.288234z156z242z1 <= 7.81
s156 - s1 + 9.286016z156z1z1 <= 7.81
s156 - s130 + 9.327038z156z130z1 <= 7.81
s156 - s254 + 9.314082z156z254z1 <= 7.81
s156 - s13 + 9.298131z156z13z1 <= 7.81
s156 - s60 + 9.074712z156z60z1 <= 7.81
s261 - s207 + 8.823775z261z207z2 <= 7.35
s261 - s29 + 8.999647z261z29z2 <= 7.35
s261 - s179 + 8.787584z261z179z2 <= 7.35
s261 - s81 + 8.982602z261z81z2 <= 7.35
s261 - s238 + 8.991749z261z238z2 <= 7.35
s261 - s125 + 9.077586z261z125z2 <= 7.35
s261 - s130 + 8.996922z261z130z2 <= 7.35
s261 - s216 + 9.002293z261z216z2 <= 7.35
s261 - s167 + 8.952986z261z167z2 <= 7.35
s261 - s256 + 8.683343z261z256z2 <= 7.35
s239 - s207 + 8.778555z239z207z2 <= 7.33
s239 - s29 + 8.955872z239z29z2 <= 7.33
s239 - s179 + 8.742205z239z179z2 <= 7.33
s239 - s81 + 8.945936z239z81z2 <= 7.33
s239 - s238 + 8.954776z239z238z2 <= 7.33
s239 - s125 + 9.034298z239z125z2 <= 7.33
s239 - s130 + 8.951902z239z130z2 <= 7.33
s239 - s216 + 8.957213z239z216z2 <= 7.33
s239 - s167 + 8.925902z239z167z2 <= 7.33
s239 - s256 + 8.638210z239z256z2 <= 7.33
s206 - s256 + 9.251162z206z256z2 <= 8.06
s112 - s60 + 9.251562z112z60z1 <= 8.06
s112 - s256 + 9.239881z112z256z2 <= 8.06
s8 - s256 + 9.162767z8z256z3 <= 7.86
s181 - s140 + 9.113985z181z140z3 <= 7.88
s181 - s81 + 9.117814z181z81z3 <= 7.88
s181 - s256 + 9.184385z181z256z3 <= 7.88
s22 - s60 + 9.415454z22z60z1 <= 8.21
s22 - s256 + 9.423674z22z256z3 <= 8.21
s61 - s256 + 9.399079z61z256z3 <= 8.19
s12 - s179 + 10.083333z12z179z1 <= 9.07
s12 - s51 + 10.083333z12z51z1 <= 9.07
s12 - s140 + 10.084907z12z140z1 <= 9.07
s12 - s140 + 10.084907z12z140z3 <= 9.07
s12 - s130 + 10.297840z12z130z1 <= 9.07
s12 - s60 + 10.183529z12z60z1 <= 9.07
s12 - s256 + 10.201993z12z256z3 <= 9.07
s157 - s126 + 10.076666z157z126z3 <= 9.07
s157 - s242 + 10.131463z157z242z1 <= 9.07
s157 - s1 + 10.105901z157z1z1 <= 9.07
s157 - s254 + 10.293607z157z254z1 <= 9.07
s157 - s13 + 10.120771z157z13z1 <= 9.07
s207 - s140 + 10.117140z207z140z3 <= 9.07
s207 - s130 + 10.244991z207z130z2 <= 9.07
s207 - s216 + 10.249505z207z216z2 <= 9.07
s207 - s256 + 10.254391z207z256z2 <= 9.07
s207 - s256 + 10.254391z207z256z3 <= 9.07
s219 - s179 + 10.098856z219z179z1 <= 9.08
s219 - s51 + 10.117712z219z51z1 <= 9.08
s219 - s140 + 10.104037z219z140z1 <= 9.08
s219 - s130 + 10.278214z219z130z1 <= 9.08
s219 - s60 + 10.221421z219z60z1 <= 9.08
s29 - s125 + 10.174853z29z125z2 <= 9.09
s29 - s130 + 10.199949z29z130z2 <= 9.09
s29 - s216 + 10.208134z29z216z2 <= 9.09
s179 - s51 + 10.128856z179z51z1 <= 9.11
s179 - s140 + 10.116667z179z140z1 <= 9.11
s179 - s130 + 10.325406z179z130z1 <= 9.11
s179 - s130 + 10.325406z179z130z2 <= 9.11
s179 - s216 + 10.329291z179z216z2 <= 9.11
s179 - s60 + 10.232565z179z60z1 <= 9.11
s179 - s256 + 10.251735z179z256z2 <= 9.11
s212 - s242 + 10.270159z212z242z1 <= 9.13
s212 - s1 + 10.237497z212z1z1 <= 9.13
s212 - s254 + 10.271421z212z254z1 <= 9.13
s212 - s13 + 10.250185z212z13z1 <= 9.13
s51 - s60 + 10.253709z51z60z1 <= 9.15
s140 - s130 + 10.367970z140z130z1 <= 9.15
s140 - s60 + 10.267945z140z60z1 <= 9.15
s140 - s256 + 10.287436z140z256z3 <= 9.15
s258 - s130 + 10.244974z258z130z1 <= 9.19
s81 - s238 + 10.273334z81z238z2 <= 9.26
s242 - s13 + 10.337488z242z13z1 <= 9.31
s1 - s13 + 10.344907z1z13z1 <= 9.33
s130 - s216 + 10.389428z130z216z2 <= 9.38

x14x12x1 - 1z14z12z1 <= 0
x14x157x1 - 1z14z157z1 <= 0
x14x219x1 - 2z14z219z1 <= 0
x14x179x1 - 1z14z179z1 <= 0
x14x212x1 - 1z14z212z1 <= 0
x14x51x1 - 2z14z51z1 <= 0
x14x140x1 - 1z14z140z1 <= 0
x14x258x1 - 2z14z258z1 <= 0
x14x161x1 - 2z14z161z1 <= 0
x14x125x1 - 1z14z125z1 <= 0
x14x242x1 - 2z14z242z1 <= 0
x14x1x1 - 2z14z1z1 <= 0
x14x130x1 - 1z14z130z1 <= 0
x14x254x1 - 2z14z254z1 <= 0
x14x13x1 - 2z14z13z1 <= 0
x14x60x1 - 2z14z60z1 <= 0
x156x51x1 - 2z156z51z1 <= 0
x156x140x1 - 1z156z140z1 <= 0
x156x242x1 - 2z156z242z1 <= 0
x156x1x1 - 2z156z1z1 <= 0
x156x130x1 - 1z156z130z1 <= 0
x156x254x1 - 2z156z254z1 <= 0
x156x13x1 - 2z156z13z1 <= 0
x156x60x1 - 2z156z60z1 <= 0
x261x207x2 - 1z261z207z2 <= 0
x261x29x2 - 2z261z29z2 <= 0
x261x179x2 - 1z261z179z2 <= 0
x261x81x2 - 1z261z81z2 <= 0
x261x238x2 - 2z261z238z2 <= 0
x261x125x2 - 1z261z125z2 <= 0
x261x130x2 - 1z261z130z2 <= 0
x261x216x2 - 2z261z216z2 <= 0
x261x167x2 - 2z261z167z2 <= 0
x261x256x2 - 1z261z256z2 <= 0
x239x207x2 - 1z239z207z2 <= 0
x239x29x2 - 2z239z29z2 <= 0
x239x179x2 - 1z239z179z2 <= 0
x239x81x2 - 1z239z81z2 <= 0
x239x238x2 - 2z239z238z2 <= 0
x239x125x2 - 1z239z125z2 <= 0
x239x130x2 - 1z239z130z2 <= 0
x239x216x2 - 2z239z216z2 <= 0
x239x167x2 - 2z239z167z2 <= 0
x239x256x2 - 1z239z256z2 <= 0
x206x256x2 - 1z206z256z2 <= 0
x112x60x1 - 2z112z60z1 <= 0
x112x256x2 - 1z112z256z2 <= 0
x8x256x3 - 1z8z256z3 <= 0
x181x140x3 - 1z181z140z3 <= 0
x181x81x3 - 1z181z81z3 <= 0
x181x256x3 - 1z181z256z3 <= 0
x22x60x1 - 2z22z60z1 <= 0
x22x256x3 - 1z22z256z3 <= 0
x61x256x3 - 1z61z256z3 <= 0
x12x179x1 - 1z12z179z1 <= 0
x12x51x1 - 2z12z51z1 <= 0
x12x140x1 - 1z12z140z1 <= 0
x12x140x3 - 1z12z140z3 <= 0
x12x130x1 - 1z12z130z1 <= 0
x12x60x1 - 2z12z60z1 <= 0
x12x256x3 - 1z12z256z3 <= 0
x12x0x1 <= 1
x12x0x3 <= 1
x157x126x3 - 2z157z126z3 <= 0
x157x242x1 - 2z157z242z1 <= 0
x157x1x1 - 2z157z1z1 <= 0
x157x254x1 - 2z157z254z1 <= 0
x157x13x1 - 2z157z13z1 <= 0
x157x0x1 <= 1
x157x0x3 <= 1
x207x140x3 - 1z207z140z3 <= 0
x207x130x2 - 1z207z130z2 <= 0
x207x216x2 - 2z207z216z2 <= 0
x207x256x2 - 1z207z256z2 <= 0
x207x256x3 - 1z207z256z3 <= 0
x207x0x2 <= 1
x207x0x3 <= 1
x219x179x1 - 1z219z179z1 <= 0
x219x51x1 - 2z219z51z1 <= 0
x219x140x1 - 1z219z140z1 <= 0
x219x130x1 - 1z219z130z1 <= 0
x219x60x1 - 2z219z60z1 <= 0
x219x0x1 <= 2
x29x125x2 - 1z29z125z2 <= 0
x29x130x2 - 1z29z130z2 <= 0
x29x216x2 - 2z29z216z2 <= 0
x29x0x2 <= 2
x179x51x1 - 2z179z51z1 <= 0
x179x140x1 - 1z179z140z1 <= 0
x179x130x1 - 1z179z130z1 <= 0
x179x130x2 - 1z179z130z2 <= 0
x179x216x2 - 2z179z216z2 <= 0
x179x60x1 - 2z179z60z1 <= 0
x179x256x2 - 1z179z256z2 <= 0
x179x0x1 <= 1
x179x0x2 <= 1
x126x0x3 <= 2
x212x242x1 - 2z212z242z1 <= 0
x212x1x1 - 2z212z1z1 <= 0
x212x254x1 - 2z212z254z1 <= 0
x212x13x1 - 2z212z13z1 <= 0
x212x0x1 <= 1
x212x0x3 <= 1
x51x60x1 - 2z51z60z1 <= 0
x51x0x1 <= 2
x140x130x1 - 1z140z130z1 <= 0
x140x60x1 - 2z140z60z1 <= 0
x140x256x3 - 1z140z256z3 <= 0
x140x0x1 <= 1
x140x0x3 <= 1
x258x130x1 - 1z258z130z1 <= 0
x258x0x1 <= 2
x161x0x1 <= 2
x81x238x2 - 2z81z238z2 <= 0
x81x0x2 <= 1
x81x0x3 <= 1
x238x0x2 <= 2
x125x0x1 <= 1
x125x0x2 <= 1
x242x13x1 - 2z242z13z1 <= 0
x242x0x1 <= 2
x1x13x1 - 2z1z13z1 <= 0
x1x0x1 <= 2
x130x216x2 - 2z130z216z2 <= 0
x130x0x1 <= 1
x130x0x2 <= 1
x254x0x1 <= 2
x216x0x2 <= 2
x13x0x1 <= 2
x167x0x2 <= 2
x60x0x1 <= 2
x256x0x2 <= 1
x256x0x3 <= 1

s12 - 6.00z14z12z1 >= 0
s157 - 6.00z14z157z1 >= 0
s207 - 6.00z261z207z2 >= 0
s207 - 6.00z239z207z2 >= 0
s219 - 6.00z14z219z1 >= 0
s29 - 6.00z261z29z2 >= 0
s29 - 6.00z239z29z2 >= 0
s179 - 6.00z14z179z1 >= 0
s179 - 6.00z261z179z2 >= 0
s179 - 6.00z239z179z2 >= 0
s179 - 6.00z12z179z1 >= 0
s179 - 6.00z219z179z1 >= 0
s126 - 6.00z157z126z3 >= 0
s212 - 6.00z14z212z1 >= 0
s51 - 6.00z14z51z1 >= 0
s51 - 6.00z156z51z1 >= 0
s51 - 6.00z12z51z1 >= 0
s51 - 6.00z219z51z1 >= 0
s51 - 6.00z179z51z1 >= 0
s140 - 6.00z14z140z1 >= 0
s140 - 6.00z156z140z1 >= 0
s140 - 6.00z181z140z3 >= 0
s140 - 6.00z12z140z1 >= 0
s140 - 6.00z12z140z3 >= 0
s140 - 6.00z207z140z3 >= 0
s140 - 6.00z219z140z1 >= 0
s140 - 6.00z179z140z1 >= 0
s258 - 6.00z14z258z1 >= 0
s161 - 6.00z14z161z1 >= 0
s81 - 6.00z261z81z2 >= 0
s81 - 6.00z239z81z2 >= 0
s81 - 6.00z181z81z3 >= 0
s238 - 6.00z261z238z2 >= 0
s238 - 6.00z239z238z2 >= 0
s238 - 6.00z81z238z2 >= 0
s125 - 6.00z14z125z1 >= 0
s125 - 6.00z261z125z2 >= 0
s125 - 6.00z239z125z2 >= 0
s125 - 6.00z29z125z2 >= 0
s242 - 6.00z14z242z1 >= 0
s242 - 6.00z156z242z1 >= 0
s242 - 6.00z157z242z1 >= 0
s242 - 6.00z212z242z1 >= 0
s1 - 6.00z14z1z1 >= 0
s1 - 6.00z156z1z1 >= 0
s1 - 6.00z157z1z1 >= 0
s1 - 6.00z212z1z1 >= 0
s130 - 6.00z14z130z1 >= 0
s130 - 6.00z156z130z1 >= 0
s130 - 6.00z261z130z2 >= 0
s130 - 6.00z239z130z2 >= 0
s130 - 6.00z12z130z1 >= 0
s130 - 6.00z207z130z2 >= 0
s130 - 6.00z219z130z1 >= 0
s130 - 6.00z29z130z2 >= 0
s130 - 6.00z179z130z1 >= 0
s130 - 6.00z179z130z2 >= 0
s130 - 6.00z140z130z1 >= 0
s130 - 6.00z258z130z1 >= 0
s254 - 6.00z14z254z1 >= 0
s254 - 6.00z156z254z1 >= 0
s254 - 6.00z157z254z1 >= 0
s254 - 6.00z212z254z1 >= 0
s216 - 6.00z261z216z2 >= 0
s216 - 6.00z239z216z2 >= 0
s216 - 6.00z207z216z2 >= 0
s216 - 6.00z29z216z2 >= 0
s216 - 6.00z179z216z2 >= 0
s216 - 6.00z130z216z2 >= 0
s13 - 6.00z14z13z1 >= 0
s13 - 6.00z156z13z1 >= 0
s13 - 6.00z157z13z1 >= 0
s13 - 6.00z212z13z1 >= 0
s13 - 6.00z242z13z1 >= 0
s13 - 6.00z1z13z1 >= 0
s167 - 6.00z261z167z2 >= 0
s167 - 6.00z239z167z2 >= 0
s60 - 6.00z14z60z1 >= 0
s60 - 6.00z156z60z1 >= 0
s60 - 6.00z112z60z1 >= 0
s60 - 6.00z22z60z1 >= 0
s60 - 6.00z12z60z1 >= 0
s60 - 6.00z219z60z1 >= 0
s60 - 6.00z179z60z1 >= 0
s60 - 6.00z51z60z1 >= 0
s60 - 6.00z140z60z1 >= 0
s256 - 6.00z261z256z2 >= 0
s256 - 6.00z239z256z2 >= 0
s256 - 6.00z206z256z2 >= 0
s256 - 6.00z112z256z2 >= 0
s256 - 6.00z8z256z3 >= 0
s256 - 6.00z181z256z3 >= 0
s256 - 6.00z22z256z3 >= 0
s256 - 6.00z61z256z3 >= 0
s256 - 6.00z12z256z3 >= 0
s256 - 6.00z207z256z2 >= 0
s256 - 6.00z207z256z3 >= 0
s256 - 6.00z179z256z2 >= 0
s256 - 6.00z140z256z3 >= 0

Bounds
s64 = 8.525023
s264 = 8.355411
s50 = 8.799260
s129 = 8.873625
s32 = 8.727420
s14 = 6.938990
s156 = 7.805970
s261 = 7.345770
s239 = 7.326940
s206 = 8.062600
s112 = 8.055490
s8 = 7.859160
s181 = 7.883720
s22 = 8.208680
s61 = 8.192090
8.070000 <= s12 <= 9.070000
8.070000 <= s157 <= 9.070000
8.070000 <= s207 <= 9.070000
8.080000 <= s219 <= 9.080000
8.090000 <= s29 <= 9.090000
8.110000 <= s179 <= 9.110000
8.130000 <= s126 <= 9.130000
8.130000 <= s212 <= 9.130000
8.150000 <= s51 <= 9.150000
8.150000 <= s140 <= 9.150000
8.190000 <= s258 <= 9.190000
8.230000 <= s161 <= 9.230000
8.260000 <= s81 <= 9.260000
8.300000 <= s238 <= 9.300000
8.310000 <= s125 <= 9.310000
8.310000 <= s242 <= 9.310000
8.330000 <= s1 <= 9.330000
8.380000 <= s130 <= 9.380000
8.390000 <= s254 <= 9.390000
8.420000 <= s216 <= 9.420000
8.450000 <= s13 <= 9.450000
8.460000 <= s167 <= 9.460000
8.470000 <= s60 <= 9.470000
8.470000 <= s256 <= 9.470000

General





x14x12x1 x14x157x1 x14x219x1 x14x179x1 x14x212x1 x14x51x1 x14x140x1 x14x258x1 x14x161x1 x14x125x1 x14x242x1 x14x1x1 x14x130x1 x14x254x1 x14x13x1 x14x60x1 
x156x51x1 x156x140x1 x156x242x1 x156x1x1 x156x130x1 x156x254x1 x156x13x1 x156x60x1 
x261x207x2 x261x29x2 x261x179x2 x261x81x2 x261x238x2 x261x125x2 x261x130x2 x261x216x2 x261x167x2 x261x256x2 
x239x207x2 x239x29x2 x239x179x2 x239x81x2 x239x238x2 x239x125x2 x239x130x2 x239x216x2 x239x167x2 x239x256x2 
x206x256x2 
x112x60x1 x112x256x2 
x8x256x3 
x181x140x3 x181x81x3 x181x256x3 
x22x60x1 x22x256x3 
x61x256x3 
x12x179x1 x12x51x1 x12x140x1 x12x140x3 x12x130x1 x12x60x1 x12x256x3 x12x0x1 x12x0x3 
x157x126x3 x157x242x1 x157x1x1 x157x254x1 x157x13x1 x157x0x1 x157x0x3 
x207x140x3 x207x130x2 x207x216x2 x207x256x2 x207x256x3 x207x0x2 x207x0x3 
x219x179x1 x219x51x1 x219x140x1 x219x130x1 x219x60x1 x219x0x1 
x29x125x2 x29x130x2 x29x216x2 x29x0x2 
x179x51x1 x179x140x1 x179x130x1 x179x130x2 x179x216x2 x179x60x1 x179x256x2 x179x0x1 x179x0x2 
x126x0x3 
x212x242x1 x212x1x1 x212x254x1 x212x13x1 x212x0x1 x212x0x3 
x51x60x1 x51x0x1 
x140x130x1 x140x60x1 x140x256x3 x140x0x1 x140x0x3 
x258x130x1 x258x0x1 
x161x0x1 
x81x238x2 x81x0x2 x81x0x3 
x238x0x2 
x125x0x1 x125x0x2 
x242x13x1 x242x0x1 
x1x13x1 x1x0x1 
x130x216x2 x130x0x1 x130x0x2 
x254x0x1 
x216x0x2 
x13x0x1 
x167x0x2 
x60x0x1 
x256x0x2 x256x0x3 

Binaries
y12 y157 y207 y219 y29 y179 y126 y212 y51 y140 y258 y161 y81 y238 y125 y242 y1 y130 y254 y216 y13 y167 y60 y256 





z14z12z1 z14z157z1 z14z219z1 z14z179z1 z14z212z1 z14z51z1 z14z140z1 z14z258z1 z14z161z1 z14z125z1 z14z242z1 z14z1z1 z14z130z1 z14z254z1 z14z13z1 z14z60z1 
z156z51z1 z156z140z1 z156z242z1 z156z1z1 z156z130z1 z156z254z1 z156z13z1 z156z60z1 
z261z207z2 z261z29z2 z261z179z2 z261z81z2 z261z238z2 z261z125z2 z261z130z2 z261z216z2 z261z167z2 z261z256z2 
z239z207z2 z239z29z2 z239z179z2 z239z81z2 z239z238z2 z239z125z2 z239z130z2 z239z216z2 z239z167z2 z239z256z2 
z206z256z2 
z112z60z1 z112z256z2 
z8z256z3 
z181z140z3 z181z81z3 z181z256z3 
z22z60z1 z22z256z3 
z61z256z3 
z12z179z1 z12z51z1 z12z140z1 z12z140z3 z12z130z1 z12z60z1 z12z256z3 
z157z126z3 z157z242z1 z157z1z1 z157z254z1 z157z13z1 
z207z140z3 z207z130z2 z207z216z2 z207z256z2 z207z256z3 
z219z179z1 z219z51z1 z219z140z1 z219z130z1 z219z60z1 
z29z125z2 z29z130z2 z29z216z2 
z179z51z1 z179z140z1 z179z130z1 z179z130z2 z179z216z2 z179z60z1 z179z256z2 

z212z242z1 z212z1z1 z212z254z1 z212z13z1 
z51z60z1 
z140z130z1 z140z60z1 z140z256z3 
z258z130z1 

z81z238z2 


z242z13z1 
z1z13z1 
z130z216z2 







End